\Problem name: mouse_grouping

Minimize
OBJROW: y_pos_0 + y_pos_1 + y_pos_2 + y_pos_3 + y_pos_4 + y_pos_5 + y_pos_6 + y_pos_7 + y_neg_0 + y_neg_1
 + y_neg_2 + y_neg_3 + y_neg_4 + y_neg_5 + y_neg_6 + y_neg_7
Subject To
Mice_in_group_0:  x_0_0 + x_1_0 + x_2_0 + x_3_0 + x_4_0 + x_5_0 + x_6_0 + x_7_0 + x_8_0 + x_9_0
 + x_10_0 + x_11_0 + x_12_0 + x_13_0 + x_14_0 + x_15_0 + x_16_0 + x_17_0 + x_18_0 + x_19_0
 + x_20_0 + x_21_0 + x_22_0 + x_23_0 + x_24_0 + x_25_0 + x_26_0 + x_27_0 + x_28_0 + x_29_0
 + x_30_0 + x_31_0 + x_32_0 + x_33_0 + x_34_0 + x_35_0 + x_36_0 + x_37_0 + x_38_0 + x_39_0
 + x_40_0 + x_41_0 + x_42_0 + x_43_0 = 6
Mice_in_group_1:  x_0_1 + x_1_1 + x_2_1 + x_3_1 + x_4_1 + x_5_1 + x_6_1 + x_7_1 + x_8_1 + x_9_1
 + x_10_1 + x_11_1 + x_12_1 + x_13_1 + x_14_1 + x_15_1 + x_16_1 + x_17_1 + x_18_1 + x_19_1
 + x_20_1 + x_21_1 + x_22_1 + x_23_1 + x_24_1 + x_25_1 + x_26_1 + x_27_1 + x_28_1 + x_29_1
 + x_30_1 + x_31_1 + x_32_1 + x_33_1 + x_34_1 + x_35_1 + x_36_1 + x_37_1 + x_38_1 + x_39_1
 + x_40_1 + x_41_1 + x_42_1 + x_43_1 = 6
Mice_in_group_2:  x_0_2 + x_1_2 + x_2_2 + x_3_2 + x_4_2 + x_5_2 + x_6_2 + x_7_2 + x_8_2 + x_9_2
 + x_10_2 + x_11_2 + x_12_2 + x_13_2 + x_14_2 + x_15_2 + x_16_2 + x_17_2 + x_18_2 + x_19_2
 + x_20_2 + x_21_2 + x_22_2 + x_23_2 + x_24_2 + x_25_2 + x_26_2 + x_27_2 + x_28_2 + x_29_2
 + x_30_2 + x_31_2 + x_32_2 + x_33_2 + x_34_2 + x_35_2 + x_36_2 + x_37_2 + x_38_2 + x_39_2
 + x_40_2 + x_41_2 + x_42_2 + x_43_2 = 6
Mice_in_group_3:  x_0_3 + x_1_3 + x_2_3 + x_3_3 + x_4_3 + x_5_3 + x_6_3 + x_7_3 + x_8_3 + x_9_3
 + x_10_3 + x_11_3 + x_12_3 + x_13_3 + x_14_3 + x_15_3 + x_16_3 + x_17_3 + x_18_3 + x_19_3
 + x_20_3 + x_21_3 + x_22_3 + x_23_3 + x_24_3 + x_25_3 + x_26_3 + x_27_3 + x_28_3 + x_29_3
 + x_30_3 + x_31_3 + x_32_3 + x_33_3 + x_34_3 + x_35_3 + x_36_3 + x_37_3 + x_38_3 + x_39_3
 + x_40_3 + x_41_3 + x_42_3 + x_43_3 = 6
Mice_in_group_4:  x_0_4 + x_1_4 + x_2_4 + x_3_4 + x_4_4 + x_5_4 + x_6_4 + x_7_4 + x_8_4 + x_9_4
 + x_10_4 + x_11_4 + x_12_4 + x_13_4 + x_14_4 + x_15_4 + x_16_4 + x_17_4 + x_18_4 + x_19_4
 + x_20_4 + x_21_4 + x_22_4 + x_23_4 + x_24_4 + x_25_4 + x_26_4 + x_27_4 + x_28_4 + x_29_4
 + x_30_4 + x_31_4 + x_32_4 + x_33_4 + x_34_4 + x_35_4 + x_36_4 + x_37_4 + x_38_4 + x_39_4
 + x_40_4 + x_41_4 + x_42_4 + x_43_4 = 5
Mice_in_group_5:  x_0_5 + x_1_5 + x_2_5 + x_3_5 + x_4_5 + x_5_5 + x_6_5 + x_7_5 + x_8_5 + x_9_5
 + x_10_5 + x_11_5 + x_12_5 + x_13_5 + x_14_5 + x_15_5 + x_16_5 + x_17_5 + x_18_5 + x_19_5
 + x_20_5 + x_21_5 + x_22_5 + x_23_5 + x_24_5 + x_25_5 + x_26_5 + x_27_5 + x_28_5 + x_29_5
 + x_30_5 + x_31_5 + x_32_5 + x_33_5 + x_34_5 + x_35_5 + x_36_5 + x_37_5 + x_38_5 + x_39_5
 + x_40_5 + x_41_5 + x_42_5 + x_43_5 = 5
Mice_in_group_6:  x_0_6 + x_1_6 + x_2_6 + x_3_6 + x_4_6 + x_5_6 + x_6_6 + x_7_6 + x_8_6 + x_9_6
 + x_10_6 + x_11_6 + x_12_6 + x_13_6 + x_14_6 + x_15_6 + x_16_6 + x_17_6 + x_18_6 + x_19_6
 + x_20_6 + x_21_6 + x_22_6 + x_23_6 + x_24_6 + x_25_6 + x_26_6 + x_27_6 + x_28_6 + x_29_6
 + x_30_6 + x_31_6 + x_32_6 + x_33_6 + x_34_6 + x_35_6 + x_36_6 + x_37_6 + x_38_6 + x_39_6
 + x_40_6 + x_41_6 + x_42_6 + x_43_6 = 5
Mice_in_group_7:  x_0_7 + x_1_7 + x_2_7 + x_3_7 + x_4_7 + x_5_7 + x_6_7 + x_7_7 + x_8_7 + x_9_7
 + x_10_7 + x_11_7 + x_12_7 + x_13_7 + x_14_7 + x_15_7 + x_16_7 + x_17_7 + x_18_7 + x_19_7
 + x_20_7 + x_21_7 + x_22_7 + x_23_7 + x_24_7 + x_25_7 + x_26_7 + x_27_7 + x_28_7 + x_29_7
 + x_30_7 + x_31_7 + x_32_7 + x_33_7 + x_34_7 + x_35_7 + x_36_7 + x_37_7 + x_38_7 + x_39_7
 + x_40_7 + x_41_7 + x_42_7 + x_43_7 = 5
Mouse_0_in_one_group:  x_0_0 + x_0_1 + x_0_2 + x_0_3 + x_0_4 + x_0_5 + x_0_6 + x_0_7 = 1
Mouse_1_in_one_group:  x_1_0 + x_1_1 + x_1_2 + x_1_3 + x_1_4 + x_1_5 + x_1_6 + x_1_7 = 1
Mouse_2_in_one_group:  x_2_0 + x_2_1 + x_2_2 + x_2_3 + x_2_4 + x_2_5 + x_2_6 + x_2_7 = 1
Mouse_3_in_one_group:  x_3_0 + x_3_1 + x_3_2 + x_3_3 + x_3_4 + x_3_5 + x_3_6 + x_3_7 = 1
Mouse_4_in_one_group:  x_4_0 + x_4_1 + x_4_2 + x_4_3 + x_4_4 + x_4_5 + x_4_6 + x_4_7 = 1
Mouse_5_in_one_group:  x_5_0 + x_5_1 + x_5_2 + x_5_3 + x_5_4 + x_5_5 + x_5_6 + x_5_7 = 1
Mouse_6_in_one_group:  x_6_0 + x_6_1 + x_6_2 + x_6_3 + x_6_4 + x_6_5 + x_6_6 + x_6_7 = 1
Mouse_7_in_one_group:  x_7_0 + x_7_1 + x_7_2 + x_7_3 + x_7_4 + x_7_5 + x_7_6 + x_7_7 = 1
Mouse_8_in_one_group:  x_8_0 + x_8_1 + x_8_2 + x_8_3 + x_8_4 + x_8_5 + x_8_6 + x_8_7 = 1
Mouse_9_in_one_group:  x_9_0 + x_9_1 + x_9_2 + x_9_3 + x_9_4 + x_9_5 + x_9_6 + x_9_7 = 1
Mouse_10_in_one_group:  x_10_0 + x_10_1 + x_10_2 + x_10_3 + x_10_4 + x_10_5 + x_10_6 + x_10_7 = 1
Mouse_11_in_one_group:  x_11_0 + x_11_1 + x_11_2 + x_11_3 + x_11_4 + x_11_5 + x_11_6 + x_11_7 = 1
Mouse_12_in_one_group:  x_12_0 + x_12_1 + x_12_2 + x_12_3 + x_12_4 + x_12_5 + x_12_6 + x_12_7 = 1
Mouse_13_in_one_group:  x_13_0 + x_13_1 + x_13_2 + x_13_3 + x_13_4 + x_13_5 + x_13_6 + x_13_7 = 1
Mouse_14_in_one_group:  x_14_0 + x_14_1 + x_14_2 + x_14_3 + x_14_4 + x_14_5 + x_14_6 + x_14_7 = 1
Mouse_15_in_one_group:  x_15_0 + x_15_1 + x_15_2 + x_15_3 + x_15_4 + x_15_5 + x_15_6 + x_15_7 = 1
Mouse_16_in_one_group:  x_16_0 + x_16_1 + x_16_2 + x_16_3 + x_16_4 + x_16_5 + x_16_6 + x_16_7 = 1
Mouse_17_in_one_group:  x_17_0 + x_17_1 + x_17_2 + x_17_3 + x_17_4 + x_17_5 + x_17_6 + x_17_7 = 1
Mouse_18_in_one_group:  x_18_0 + x_18_1 + x_18_2 + x_18_3 + x_18_4 + x_18_5 + x_18_6 + x_18_7 = 1
Mouse_19_in_one_group:  x_19_0 + x_19_1 + x_19_2 + x_19_3 + x_19_4 + x_19_5 + x_19_6 + x_19_7 = 1
Mouse_20_in_one_group:  x_20_0 + x_20_1 + x_20_2 + x_20_3 + x_20_4 + x_20_5 + x_20_6 + x_20_7 = 1
Mouse_21_in_one_group:  x_21_0 + x_21_1 + x_21_2 + x_21_3 + x_21_4 + x_21_5 + x_21_6 + x_21_7 = 1
Mouse_22_in_one_group:  x_22_0 + x_22_1 + x_22_2 + x_22_3 + x_22_4 + x_22_5 + x_22_6 + x_22_7 = 1
Mouse_23_in_one_group:  x_23_0 + x_23_1 + x_23_2 + x_23_3 + x_23_4 + x_23_5 + x_23_6 + x_23_7 = 1
Mouse_24_in_one_group:  x_24_0 + x_24_1 + x_24_2 + x_24_3 + x_24_4 + x_24_5 + x_24_6 + x_24_7 = 1
Mouse_25_in_one_group:  x_25_0 + x_25_1 + x_25_2 + x_25_3 + x_25_4 + x_25_5 + x_25_6 + x_25_7 = 1
Mouse_26_in_one_group:  x_26_0 + x_26_1 + x_26_2 + x_26_3 + x_26_4 + x_26_5 + x_26_6 + x_26_7 = 1
Mouse_27_in_one_group:  x_27_0 + x_27_1 + x_27_2 + x_27_3 + x_27_4 + x_27_5 + x_27_6 + x_27_7 = 1
Mouse_28_in_one_group:  x_28_0 + x_28_1 + x_28_2 + x_28_3 + x_28_4 + x_28_5 + x_28_6 + x_28_7 = 1
Mouse_29_in_one_group:  x_29_0 + x_29_1 + x_29_2 + x_29_3 + x_29_4 + x_29_5 + x_29_6 + x_29_7 = 1
Mouse_30_in_one_group:  x_30_0 + x_30_1 + x_30_2 + x_30_3 + x_30_4 + x_30_5 + x_30_6 + x_30_7 = 1
Mouse_31_in_one_group:  x_31_0 + x_31_1 + x_31_2 + x_31_3 + x_31_4 + x_31_5 + x_31_6 + x_31_7 = 1
Mouse_32_in_one_group:  x_32_0 + x_32_1 + x_32_2 + x_32_3 + x_32_4 + x_32_5 + x_32_6 + x_32_7 = 1
Mouse_33_in_one_group:  x_33_0 + x_33_1 + x_33_2 + x_33_3 + x_33_4 + x_33_5 + x_33_6 + x_33_7 = 1
Mouse_34_in_one_group:  x_34_0 + x_34_1 + x_34_2 + x_34_3 + x_34_4 + x_34_5 + x_34_6 + x_34_7 = 1
Mouse_35_in_one_group:  x_35_0 + x_35_1 + x_35_2 + x_35_3 + x_35_4 + x_35_5 + x_35_6 + x_35_7 = 1
Mouse_36_in_one_group:  x_36_0 + x_36_1 + x_36_2 + x_36_3 + x_36_4 + x_36_5 + x_36_6 + x_36_7 = 1
Mouse_37_in_one_group:  x_37_0 + x_37_1 + x_37_2 + x_37_3 + x_37_4 + x_37_5 + x_37_6 + x_37_7 = 1
Mouse_38_in_one_group:  x_38_0 + x_38_1 + x_38_2 + x_38_3 + x_38_4 + x_38_5 + x_38_6 + x_38_7 = 1
Mouse_39_in_one_group:  x_39_0 + x_39_1 + x_39_2 + x_39_3 + x_39_4 + x_39_5 + x_39_6 + x_39_7 = 1
Mouse_40_in_one_group:  x_40_0 + x_40_1 + x_40_2 + x_40_3 + x_40_4 + x_40_5 + x_40_6 + x_40_7 = 1
Mouse_41_in_one_group:  x_41_0 + x_41_1 + x_41_2 + x_41_3 + x_41_4 + x_41_5 + x_41_6 + x_41_7 = 1
Mouse_42_in_one_group:  x_42_0 + x_42_1 + x_42_2 + x_42_3 + x_42_4 + x_42_5 + x_42_6 + x_42_7 = 1
Mouse_43_in_one_group:  x_43_0 + x_43_1 + x_43_2 + x_43_3 + x_43_4 + x_43_5 + x_43_6 + x_43_7 = 1
Mean_tumor_diff_in_group_0:  -8.69384 x_0_0 + 31.03784 x_1_0 + 4.97275 x_2_0 -14.76411 x_3_0 -33.26497 x_4_0 + 26.18144 x_5_0 -7.24158 x_6_0 -24.11076 x_7_0 -22.24071 x_8_0 -19.57936 x_9_0
 -6.02385 x_10_0 -28.21816 x_11_0 -26.04771 x_12_0 + 22.75398 x_13_0 -23.84104 x_14_0 -18.52039 x_15_0 -3.04523 x_16_0 -24.25804 x_17_0 -6.29995 x_18_0 -19.66905 x_19_0
 -27.02221 x_20_0 + 25.96118 x_21_0 -0.61214 x_22_0 + 2.39710 x_23_0 -15.93912 x_24_0 + 5.22672 x_25_0 + 30.64445 x_26_0 + 54.64976 x_27_0 -18.05946 x_28_0 -2.79878 x_29_0
 -7.55806 x_30_0 -22.83354 x_31_0 -22.15429 x_32_0 + 31.25161 x_33_0 + 88.18499 x_34_0 + 10.28256 x_35_0 -1.57263 x_36_0 + 0.47632 x_37_0 + 106.80482 x_38_0 -19.42642 x_39_0
 -29.27604 x_40_0 -21.09665 x_41_0 + 7.35763 x_42_0 + 25.98494 x_43_0 - y_pos_0 + y_neg_0 = -0
Mean_tumor_diff_in_group_1:  -8.69384 x_0_1 + 31.03784 x_1_1 + 4.97275 x_2_1 -14.76411 x_3_1 -33.26497 x_4_1 + 26.18144 x_5_1 -7.24158 x_6_1 -24.11076 x_7_1 -22.24071 x_8_1 -19.57936 x_9_1
 -6.02385 x_10_1 -28.21816 x_11_1 -26.04771 x_12_1 + 22.75398 x_13_1 -23.84104 x_14_1 -18.52039 x_15_1 -3.04523 x_16_1 -24.25804 x_17_1 -6.29995 x_18_1 -19.66905 x_19_1
 -27.02221 x_20_1 + 25.96118 x_21_1 -0.61214 x_22_1 + 2.39710 x_23_1 -15.93912 x_24_1 + 5.22672 x_25_1 + 30.64445 x_26_1 + 54.64976 x_27_1 -18.05946 x_28_1 -2.79878 x_29_1
 -7.55806 x_30_1 -22.83354 x_31_1 -22.15429 x_32_1 + 31.25161 x_33_1 + 88.18499 x_34_1 + 10.28256 x_35_1 -1.57263 x_36_1 + 0.47632 x_37_1 + 106.80482 x_38_1 -19.42642 x_39_1
 -29.27604 x_40_1 -21.09665 x_41_1 + 7.35763 x_42_1 + 25.98494 x_43_1 - y_pos_1 + y_neg_1 = -0
Mean_tumor_diff_in_group_2:  -8.69384 x_0_2 + 31.03784 x_1_2 + 4.97275 x_2_2 -14.76411 x_3_2 -33.26497 x_4_2 + 26.18144 x_5_2 -7.24158 x_6_2 -24.11076 x_7_2 -22.24071 x_8_2 -19.57936 x_9_2
 -6.02385 x_10_2 -28.21816 x_11_2 -26.04771 x_12_2 + 22.75398 x_13_2 -23.84104 x_14_2 -18.52039 x_15_2 -3.04523 x_16_2 -24.25804 x_17_2 -6.29995 x_18_2 -19.66905 x_19_2
 -27.02221 x_20_2 + 25.96118 x_21_2 -0.61214 x_22_2 + 2.39710 x_23_2 -15.93912 x_24_2 + 5.22672 x_25_2 + 30.64445 x_26_2 + 54.64976 x_27_2 -18.05946 x_28_2 -2.79878 x_29_2
 -7.55806 x_30_2 -22.83354 x_31_2 -22.15429 x_32_2 + 31.25161 x_33_2 + 88.18499 x_34_2 + 10.28256 x_35_2 -1.57263 x_36_2 + 0.47632 x_37_2 + 106.80482 x_38_2 -19.42642 x_39_2
 -29.27604 x_40_2 -21.09665 x_41_2 + 7.35763 x_42_2 + 25.98494 x_43_2 - y_pos_2 + y_neg_2 = -0
Mean_tumor_diff_in_group_3:  -8.69384 x_0_3 + 31.03784 x_1_3 + 4.97275 x_2_3 -14.76411 x_3_3 -33.26497 x_4_3 + 26.18144 x_5_3 -7.24158 x_6_3 -24.11076 x_7_3 -22.24071 x_8_3 -19.57936 x_9_3
 -6.02385 x_10_3 -28.21816 x_11_3 -26.04771 x_12_3 + 22.75398 x_13_3 -23.84104 x_14_3 -18.52039 x_15_3 -3.04523 x_16_3 -24.25804 x_17_3 -6.29995 x_18_3 -19.66905 x_19_3
 -27.02221 x_20_3 + 25.96118 x_21_3 -0.61214 x_22_3 + 2.39710 x_23_3 -15.93912 x_24_3 + 5.22672 x_25_3 + 30.64445 x_26_3 + 54.64976 x_27_3 -18.05946 x_28_3 -2.79878 x_29_3
 -7.55806 x_30_3 -22.83354 x_31_3 -22.15429 x_32_3 + 31.25161 x_33_3 + 88.18499 x_34_3 + 10.28256 x_35_3 -1.57263 x_36_3 + 0.47632 x_37_3 + 106.80482 x_38_3 -19.42642 x_39_3
 -29.27604 x_40_3 -21.09665 x_41_3 + 7.35763 x_42_3 + 25.98494 x_43_3 - y_pos_3 + y_neg_3 = -0
Mean_tumor_diff_in_group_4:  -8.69384 x_0_4 + 31.03784 x_1_4 + 4.97275 x_2_4 -14.76411 x_3_4 -33.26497 x_4_4 + 26.18144 x_5_4 -7.24158 x_6_4 -24.11076 x_7_4 -22.24071 x_8_4 -19.57936 x_9_4
 -6.02385 x_10_4 -28.21816 x_11_4 -26.04771 x_12_4 + 22.75398 x_13_4 -23.84104 x_14_4 -18.52039 x_15_4 -3.04523 x_16_4 -24.25804 x_17_4 -6.29995 x_18_4 -19.66905 x_19_4
 -27.02221 x_20_4 + 25.96118 x_21_4 -0.61214 x_22_4 + 2.39710 x_23_4 -15.93912 x_24_4 + 5.22672 x_25_4 + 30.64445 x_26_4 + 54.64976 x_27_4 -18.05946 x_28_4 -2.79878 x_29_4
 -7.55806 x_30_4 -22.83354 x_31_4 -22.15429 x_32_4 + 31.25161 x_33_4 + 88.18499 x_34_4 + 10.28256 x_35_4 -1.57263 x_36_4 + 0.47632 x_37_4 + 106.80482 x_38_4 -19.42642 x_39_4
 -29.27604 x_40_4 -21.09665 x_41_4 + 7.35763 x_42_4 + 25.98494 x_43_4 - y_pos_4 + y_neg_4 = -0
Mean_tumor_diff_in_group_5:  -8.69384 x_0_5 + 31.03784 x_1_5 + 4.97275 x_2_5 -14.76411 x_3_5 -33.26497 x_4_5 + 26.18144 x_5_5 -7.24158 x_6_5 -24.11076 x_7_5 -22.24071 x_8_5 -19.57936 x_9_5
 -6.02385 x_10_5 -28.21816 x_11_5 -26.04771 x_12_5 + 22.75398 x_13_5 -23.84104 x_14_5 -18.52039 x_15_5 -3.04523 x_16_5 -24.25804 x_17_5 -6.29995 x_18_5 -19.66905 x_19_5
 -27.02221 x_20_5 + 25.96118 x_21_5 -0.61214 x_22_5 + 2.39710 x_23_5 -15.93912 x_24_5 + 5.22672 x_25_5 + 30.64445 x_26_5 + 54.64976 x_27_5 -18.05946 x_28_5 -2.79878 x_29_5
 -7.55806 x_30_5 -22.83354 x_31_5 -22.15429 x_32_5 + 31.25161 x_33_5 + 88.18499 x_34_5 + 10.28256 x_35_5 -1.57263 x_36_5 + 0.47632 x_37_5 + 106.80482 x_38_5 -19.42642 x_39_5
 -29.27604 x_40_5 -21.09665 x_41_5 + 7.35763 x_42_5 + 25.98494 x_43_5 - y_pos_5 + y_neg_5 = -0
Mean_tumor_diff_in_group_6:  -8.69384 x_0_6 + 31.03784 x_1_6 + 4.97275 x_2_6 -14.76411 x_3_6 -33.26497 x_4_6 + 26.18144 x_5_6 -7.24158 x_6_6 -24.11076 x_7_6 -22.24071 x_8_6 -19.57936 x_9_6
 -6.02385 x_10_6 -28.21816 x_11_6 -26.04771 x_12_6 + 22.75398 x_13_6 -23.84104 x_14_6 -18.52039 x_15_6 -3.04523 x_16_6 -24.25804 x_17_6 -6.29995 x_18_6 -19.66905 x_19_6
 -27.02221 x_20_6 + 25.96118 x_21_6 -0.61214 x_22_6 + 2.39710 x_23_6 -15.93912 x_24_6 + 5.22672 x_25_6 + 30.64445 x_26_6 + 54.64976 x_27_6 -18.05946 x_28_6 -2.79878 x_29_6
 -7.55806 x_30_6 -22.83354 x_31_6 -22.15429 x_32_6 + 31.25161 x_33_6 + 88.18499 x_34_6 + 10.28256 x_35_6 -1.57263 x_36_6 + 0.47632 x_37_6 + 106.80482 x_38_6 -19.42642 x_39_6
 -29.27604 x_40_6 -21.09665 x_41_6 + 7.35763 x_42_6 + 25.98494 x_43_6 - y_pos_6 + y_neg_6 = -0
Mean_tumor_diff_in_group_7:  -8.69384 x_0_7 + 31.03784 x_1_7 + 4.97275 x_2_7 -14.76411 x_3_7 -33.26497 x_4_7 + 26.18144 x_5_7 -7.24158 x_6_7 -24.11076 x_7_7 -22.24071 x_8_7 -19.57936 x_9_7
 -6.02385 x_10_7 -28.21816 x_11_7 -26.04771 x_12_7 + 22.75398 x_13_7 -23.84104 x_14_7 -18.52039 x_15_7 -3.04523 x_16_7 -24.25804 x_17_7 -6.29995 x_18_7 -19.66905 x_19_7
 -27.02221 x_20_7 + 25.96118 x_21_7 -0.61214 x_22_7 + 2.39710 x_23_7 -15.93912 x_24_7 + 5.22672 x_25_7 + 30.64445 x_26_7 + 54.64976 x_27_7 -18.05946 x_28_7 -2.79878 x_29_7
 -7.55806 x_30_7 -22.83354 x_31_7 -22.15429 x_32_7 + 31.25161 x_33_7 + 88.18499 x_34_7 + 10.28256 x_35_7 -1.57263 x_36_7 + 0.47632 x_37_7 + 106.80482 x_38_7 -19.42642 x_39_7
 -29.27604 x_40_7 -21.09665 x_41_7 + 7.35763 x_42_7 + 25.98494 x_43_7 - y_pos_7 + y_neg_7 = -0
Bounds
 0 <= x_0_0 <= 1
 0 <= x_0_1 <= 1
 0 <= x_0_2 <= 1
 0 <= x_0_3 <= 1
 0 <= x_0_4 <= 1
 0 <= x_0_5 <= 1
 0 <= x_0_6 <= 1
 0 <= x_0_7 <= 1
 0 <= x_1_0 <= 1
 0 <= x_1_1 <= 1
 0 <= x_1_2 <= 1
 0 <= x_1_3 <= 1
 0 <= x_1_4 <= 1
 0 <= x_1_5 <= 1
 0 <= x_1_6 <= 1
 0 <= x_1_7 <= 1
 0 <= x_2_0 <= 1
 0 <= x_2_1 <= 1
 0 <= x_2_2 <= 1
 0 <= x_2_3 <= 1
 0 <= x_2_4 <= 1
 0 <= x_2_5 <= 1
 0 <= x_2_6 <= 1
 0 <= x_2_7 <= 1
 0 <= x_3_0 <= 1
 0 <= x_3_1 <= 1
 0 <= x_3_2 <= 1
 0 <= x_3_3 <= 1
 0 <= x_3_4 <= 1
 0 <= x_3_5 <= 1
 0 <= x_3_6 <= 1
 0 <= x_3_7 <= 1
 0 <= x_4_0 <= 1
 0 <= x_4_1 <= 1
 0 <= x_4_2 <= 1
 0 <= x_4_3 <= 1
 0 <= x_4_4 <= 1
 0 <= x_4_5 <= 1
 0 <= x_4_6 <= 1
 0 <= x_4_7 <= 1
 0 <= x_5_0 <= 1
 0 <= x_5_1 <= 1
 0 <= x_5_2 <= 1
 0 <= x_5_3 <= 1
 0 <= x_5_4 <= 1
 0 <= x_5_5 <= 1
 0 <= x_5_6 <= 1
 0 <= x_5_7 <= 1
 0 <= x_6_0 <= 1
 0 <= x_6_1 <= 1
 0 <= x_6_2 <= 1
 0 <= x_6_3 <= 1
 0 <= x_6_4 <= 1
 0 <= x_6_5 <= 1
 0 <= x_6_6 <= 1
 0 <= x_6_7 <= 1
 0 <= x_7_0 <= 1
 0 <= x_7_1 <= 1
 0 <= x_7_2 <= 1
 0 <= x_7_3 <= 1
 0 <= x_7_4 <= 1
 0 <= x_7_5 <= 1
 0 <= x_7_6 <= 1
 0 <= x_7_7 <= 1
 0 <= x_8_0 <= 1
 0 <= x_8_1 <= 1
 0 <= x_8_2 <= 1
 0 <= x_8_3 <= 1
 0 <= x_8_4 <= 1
 0 <= x_8_5 <= 1
 0 <= x_8_6 <= 1
 0 <= x_8_7 <= 1
 0 <= x_9_0 <= 1
 0 <= x_9_1 <= 1
 0 <= x_9_2 <= 1
 0 <= x_9_3 <= 1
 0 <= x_9_4 <= 1
 0 <= x_9_5 <= 1
 0 <= x_9_6 <= 1
 0 <= x_9_7 <= 1
 0 <= x_10_0 <= 1
 0 <= x_10_1 <= 1
 0 <= x_10_2 <= 1
 0 <= x_10_3 <= 1
 0 <= x_10_4 <= 1
 0 <= x_10_5 <= 1
 0 <= x_10_6 <= 1
 0 <= x_10_7 <= 1
 0 <= x_11_0 <= 1
 0 <= x_11_1 <= 1
 0 <= x_11_2 <= 1
 0 <= x_11_3 <= 1
 0 <= x_11_4 <= 1
 0 <= x_11_5 <= 1
 0 <= x_11_6 <= 1
 0 <= x_11_7 <= 1
 0 <= x_12_0 <= 1
 0 <= x_12_1 <= 1
 0 <= x_12_2 <= 1
 0 <= x_12_3 <= 1
 0 <= x_12_4 <= 1
 0 <= x_12_5 <= 1
 0 <= x_12_6 <= 1
 0 <= x_12_7 <= 1
 0 <= x_13_0 <= 1
 0 <= x_13_1 <= 1
 0 <= x_13_2 <= 1
 0 <= x_13_3 <= 1
 0 <= x_13_4 <= 1
 0 <= x_13_5 <= 1
 0 <= x_13_6 <= 1
 0 <= x_13_7 <= 1
 0 <= x_14_0 <= 1
 0 <= x_14_1 <= 1
 0 <= x_14_2 <= 1
 0 <= x_14_3 <= 1
 0 <= x_14_4 <= 1
 0 <= x_14_5 <= 1
 0 <= x_14_6 <= 1
 0 <= x_14_7 <= 1
 0 <= x_15_0 <= 1
 0 <= x_15_1 <= 1
 0 <= x_15_2 <= 1
 0 <= x_15_3 <= 1
 0 <= x_15_4 <= 1
 0 <= x_15_5 <= 1
 0 <= x_15_6 <= 1
 0 <= x_15_7 <= 1
 0 <= x_16_0 <= 1
 0 <= x_16_1 <= 1
 0 <= x_16_2 <= 1
 0 <= x_16_3 <= 1
 0 <= x_16_4 <= 1
 0 <= x_16_5 <= 1
 0 <= x_16_6 <= 1
 0 <= x_16_7 <= 1
 0 <= x_17_0 <= 1
 0 <= x_17_1 <= 1
 0 <= x_17_2 <= 1
 0 <= x_17_3 <= 1
 0 <= x_17_4 <= 1
 0 <= x_17_5 <= 1
 0 <= x_17_6 <= 1
 0 <= x_17_7 <= 1
 0 <= x_18_0 <= 1
 0 <= x_18_1 <= 1
 0 <= x_18_2 <= 1
 0 <= x_18_3 <= 1
 0 <= x_18_4 <= 1
 0 <= x_18_5 <= 1
 0 <= x_18_6 <= 1
 0 <= x_18_7 <= 1
 0 <= x_19_0 <= 1
 0 <= x_19_1 <= 1
 0 <= x_19_2 <= 1
 0 <= x_19_3 <= 1
 0 <= x_19_4 <= 1
 0 <= x_19_5 <= 1
 0 <= x_19_6 <= 1
 0 <= x_19_7 <= 1
 0 <= x_20_0 <= 1
 0 <= x_20_1 <= 1
 0 <= x_20_2 <= 1
 0 <= x_20_3 <= 1
 0 <= x_20_4 <= 1
 0 <= x_20_5 <= 1
 0 <= x_20_6 <= 1
 0 <= x_20_7 <= 1
 0 <= x_21_0 <= 1
 0 <= x_21_1 <= 1
 0 <= x_21_2 <= 1
 0 <= x_21_3 <= 1
 0 <= x_21_4 <= 1
 0 <= x_21_5 <= 1
 0 <= x_21_6 <= 1
 0 <= x_21_7 <= 1
 0 <= x_22_0 <= 1
 0 <= x_22_1 <= 1
 0 <= x_22_2 <= 1
 0 <= x_22_3 <= 1
 0 <= x_22_4 <= 1
 0 <= x_22_5 <= 1
 0 <= x_22_6 <= 1
 0 <= x_22_7 <= 1
 0 <= x_23_0 <= 1
 0 <= x_23_1 <= 1
 0 <= x_23_2 <= 1
 0 <= x_23_3 <= 1
 0 <= x_23_4 <= 1
 0 <= x_23_5 <= 1
 0 <= x_23_6 <= 1
 0 <= x_23_7 <= 1
 0 <= x_24_0 <= 1
 0 <= x_24_1 <= 1
 0 <= x_24_2 <= 1
 0 <= x_24_3 <= 1
 0 <= x_24_4 <= 1
 0 <= x_24_5 <= 1
 0 <= x_24_6 <= 1
 0 <= x_24_7 <= 1
 0 <= x_25_0 <= 1
 0 <= x_25_1 <= 1
 0 <= x_25_2 <= 1
 0 <= x_25_3 <= 1
 0 <= x_25_4 <= 1
 0 <= x_25_5 <= 1
 0 <= x_25_6 <= 1
 0 <= x_25_7 <= 1
 0 <= x_26_0 <= 1
 0 <= x_26_1 <= 1
 0 <= x_26_2 <= 1
 0 <= x_26_3 <= 1
 0 <= x_26_4 <= 1
 0 <= x_26_5 <= 1
 0 <= x_26_6 <= 1
 0 <= x_26_7 <= 1
 0 <= x_27_0 <= 1
 0 <= x_27_1 <= 1
 0 <= x_27_2 <= 1
 0 <= x_27_3 <= 1
 0 <= x_27_4 <= 1
 0 <= x_27_5 <= 1
 0 <= x_27_6 <= 1
 0 <= x_27_7 <= 1
 0 <= x_28_0 <= 1
 0 <= x_28_1 <= 1
 0 <= x_28_2 <= 1
 0 <= x_28_3 <= 1
 0 <= x_28_4 <= 1
 0 <= x_28_5 <= 1
 0 <= x_28_6 <= 1
 0 <= x_28_7 <= 1
 0 <= x_29_0 <= 1
 0 <= x_29_1 <= 1
 0 <= x_29_2 <= 1
 0 <= x_29_3 <= 1
 0 <= x_29_4 <= 1
 0 <= x_29_5 <= 1
 0 <= x_29_6 <= 1
 0 <= x_29_7 <= 1
 0 <= x_30_0 <= 1
 0 <= x_30_1 <= 1
 0 <= x_30_2 <= 1
 0 <= x_30_3 <= 1
 0 <= x_30_4 <= 1
 0 <= x_30_5 <= 1
 0 <= x_30_6 <= 1
 0 <= x_30_7 <= 1
 0 <= x_31_0 <= 1
 0 <= x_31_1 <= 1
 0 <= x_31_2 <= 1
 0 <= x_31_3 <= 1
 0 <= x_31_4 <= 1
 0 <= x_31_5 <= 1
 0 <= x_31_6 <= 1
 0 <= x_31_7 <= 1
 0 <= x_32_0 <= 1
 0 <= x_32_1 <= 1
 0 <= x_32_2 <= 1
 0 <= x_32_3 <= 1
 0 <= x_32_4 <= 1
 0 <= x_32_5 <= 1
 0 <= x_32_6 <= 1
 0 <= x_32_7 <= 1
 0 <= x_33_0 <= 1
 0 <= x_33_1 <= 1
 0 <= x_33_2 <= 1
 0 <= x_33_3 <= 1
 0 <= x_33_4 <= 1
 0 <= x_33_5 <= 1
 0 <= x_33_6 <= 1
 0 <= x_33_7 <= 1
 0 <= x_34_0 <= 1
 0 <= x_34_1 <= 1
 0 <= x_34_2 <= 1
 0 <= x_34_3 <= 1
 0 <= x_34_4 <= 1
 0 <= x_34_5 <= 1
 0 <= x_34_6 <= 1
 0 <= x_34_7 <= 1
 0 <= x_35_0 <= 1
 0 <= x_35_1 <= 1
 0 <= x_35_2 <= 1
 0 <= x_35_3 <= 1
 0 <= x_35_4 <= 1
 0 <= x_35_5 <= 1
 0 <= x_35_6 <= 1
 0 <= x_35_7 <= 1
 0 <= x_36_0 <= 1
 0 <= x_36_1 <= 1
 0 <= x_36_2 <= 1
 0 <= x_36_3 <= 1
 0 <= x_36_4 <= 1
 0 <= x_36_5 <= 1
 0 <= x_36_6 <= 1
 0 <= x_36_7 <= 1
 0 <= x_37_0 <= 1
 0 <= x_37_1 <= 1
 0 <= x_37_2 <= 1
 0 <= x_37_3 <= 1
 0 <= x_37_4 <= 1
 0 <= x_37_5 <= 1
 0 <= x_37_6 <= 1
 0 <= x_37_7 <= 1
 0 <= x_38_0 <= 1
 0 <= x_38_1 <= 1
 0 <= x_38_2 <= 1
 0 <= x_38_3 <= 1
 0 <= x_38_4 <= 1
 0 <= x_38_5 <= 1
 0 <= x_38_6 <= 1
 0 <= x_38_7 <= 1
 0 <= x_39_0 <= 1
 0 <= x_39_1 <= 1
 0 <= x_39_2 <= 1
 0 <= x_39_3 <= 1
 0 <= x_39_4 <= 1
 0 <= x_39_5 <= 1
 0 <= x_39_6 <= 1
 0 <= x_39_7 <= 1
 0 <= x_40_0 <= 1
 0 <= x_40_1 <= 1
 0 <= x_40_2 <= 1
 0 <= x_40_3 <= 1
 0 <= x_40_4 <= 1
 0 <= x_40_5 <= 1
 0 <= x_40_6 <= 1
 0 <= x_40_7 <= 1
 0 <= x_41_0 <= 1
 0 <= x_41_1 <= 1
 0 <= x_41_2 <= 1
 0 <= x_41_3 <= 1
 0 <= x_41_4 <= 1
 0 <= x_41_5 <= 1
 0 <= x_41_6 <= 1
 0 <= x_41_7 <= 1
 0 <= x_42_0 <= 1
 0 <= x_42_1 <= 1
 0 <= x_42_2 <= 1
 0 <= x_42_3 <= 1
 0 <= x_42_4 <= 1
 0 <= x_42_5 <= 1
 0 <= x_42_6 <= 1
 0 <= x_42_7 <= 1
 0 <= x_43_0 <= 1
 0 <= x_43_1 <= 1
 0 <= x_43_2 <= 1
 0 <= x_43_3 <= 1
 0 <= x_43_4 <= 1
 0 <= x_43_5 <= 1
 0 <= x_43_6 <= 1
 0 <= x_43_7 <= 1
Integers
x_0_0 x_0_1 x_0_2 x_0_3 x_0_4 x_0_5 x_0_6 x_0_7 x_1_0 x_1_1 
x_1_2 x_1_3 x_1_4 x_1_5 x_1_6 x_1_7 x_2_0 x_2_1 x_2_2 x_2_3 
x_2_4 x_2_5 x_2_6 x_2_7 x_3_0 x_3_1 x_3_2 x_3_3 x_3_4 x_3_5 
x_3_6 x_3_7 x_4_0 x_4_1 x_4_2 x_4_3 x_4_4 x_4_5 x_4_6 x_4_7 
x_5_0 x_5_1 x_5_2 x_5_3 x_5_4 x_5_5 x_5_6 x_5_7 x_6_0 x_6_1 
x_6_2 x_6_3 x_6_4 x_6_5 x_6_6 x_6_7 x_7_0 x_7_1 x_7_2 x_7_3 
x_7_4 x_7_5 x_7_6 x_7_7 x_8_0 x_8_1 x_8_2 x_8_3 x_8_4 x_8_5 
x_8_6 x_8_7 x_9_0 x_9_1 x_9_2 x_9_3 x_9_4 x_9_5 x_9_6 x_9_7 
x_10_0 x_10_1 x_10_2 x_10_3 x_10_4 x_10_5 x_10_6 x_10_7 x_11_0 x_11_1 
x_11_2 x_11_3 x_11_4 x_11_5 x_11_6 x_11_7 x_12_0 x_12_1 x_12_2 x_12_3 
x_12_4 x_12_5 x_12_6 x_12_7 x_13_0 x_13_1 x_13_2 x_13_3 x_13_4 x_13_5 
x_13_6 x_13_7 x_14_0 x_14_1 x_14_2 x_14_3 x_14_4 x_14_5 x_14_6 x_14_7 
x_15_0 x_15_1 x_15_2 x_15_3 x_15_4 x_15_5 x_15_6 x_15_7 x_16_0 x_16_1 
x_16_2 x_16_3 x_16_4 x_16_5 x_16_6 x_16_7 x_17_0 x_17_1 x_17_2 x_17_3 
x_17_4 x_17_5 x_17_6 x_17_7 x_18_0 x_18_1 x_18_2 x_18_3 x_18_4 x_18_5 
x_18_6 x_18_7 x_19_0 x_19_1 x_19_2 x_19_3 x_19_4 x_19_5 x_19_6 x_19_7 
x_20_0 x_20_1 x_20_2 x_20_3 x_20_4 x_20_5 x_20_6 x_20_7 x_21_0 x_21_1 
x_21_2 x_21_3 x_21_4 x_21_5 x_21_6 x_21_7 x_22_0 x_22_1 x_22_2 x_22_3 
x_22_4 x_22_5 x_22_6 x_22_7 x_23_0 x_23_1 x_23_2 x_23_3 x_23_4 x_23_5 
x_23_6 x_23_7 x_24_0 x_24_1 x_24_2 x_24_3 x_24_4 x_24_5 x_24_6 x_24_7 
x_25_0 x_25_1 x_25_2 x_25_3 x_25_4 x_25_5 x_25_6 x_25_7 x_26_0 x_26_1 
x_26_2 x_26_3 x_26_4 x_26_5 x_26_6 x_26_7 x_27_0 x_27_1 x_27_2 x_27_3 
x_27_4 x_27_5 x_27_6 x_27_7 x_28_0 x_28_1 x_28_2 x_28_3 x_28_4 x_28_5 
x_28_6 x_28_7 x_29_0 x_29_1 x_29_2 x_29_3 x_29_4 x_29_5 x_29_6 x_29_7 
x_30_0 x_30_1 x_30_2 x_30_3 x_30_4 x_30_5 x_30_6 x_30_7 x_31_0 x_31_1 
x_31_2 x_31_3 x_31_4 x_31_5 x_31_6 x_31_7 x_32_0 x_32_1 x_32_2 x_32_3 
x_32_4 x_32_5 x_32_6 x_32_7 x_33_0 x_33_1 x_33_2 x_33_3 x_33_4 x_33_5 
x_33_6 x_33_7 x_34_0 x_34_1 x_34_2 x_34_3 x_34_4 x_34_5 x_34_6 x_34_7 
x_35_0 x_35_1 x_35_2 x_35_3 x_35_4 x_35_5 x_35_6 x_35_7 x_36_0 x_36_1 
x_36_2 x_36_3 x_36_4 x_36_5 x_36_6 x_36_7 x_37_0 x_37_1 x_37_2 x_37_3 
x_37_4 x_37_5 x_37_6 x_37_7 x_38_0 x_38_1 x_38_2 x_38_3 x_38_4 x_38_5 
x_38_6 x_38_7 x_39_0 x_39_1 x_39_2 x_39_3 x_39_4 x_39_5 x_39_6 x_39_7 
x_40_0 x_40_1 x_40_2 x_40_3 x_40_4 x_40_5 x_40_6 x_40_7 x_41_0 x_41_1 
x_41_2 x_41_3 x_41_4 x_41_5 x_41_6 x_41_7 x_42_0 x_42_1 x_42_2 x_42_3 
x_42_4 x_42_5 x_42_6 x_42_7 x_43_0 x_43_1 x_43_2 x_43_3 x_43_4 x_43_5 
x_43_6 x_43_7 
End
